p td 120 89 
33 7
33 20
33 35
33 69
43 30
43 42
119 18
60 20
60 87
91 44
91 107
82 39
97 42
17 37
17 61
17 103
17 117
109 112
81 6
111 18
108 20
108 64
108 76
108 112
26 37
26 64
57 85
1 64
102 79
102 83
102 118
93 110
9 19
32 6
32 70
24 23
24 87
80 30
80 67
80 120
59 7
96 6
45 16
45 70
45 76
46 64
46 99
46 107
104 21
104 78
104 103
104 117
92 39
92 83
75 6
75 70
114 116
84 38
84 117
77 64
48 41
94 18
12 16
12 38
12 53
105 62
105 76
49 14
49 76
49 87
98 74
98 118
90 13
90 15
90 58
115 3
89 99
50 3
34 51
34 74
47 110
73 95
73 113
11 3
11 10
25 51
101 36
101 39
101 67
